
  22   10
  10   10   10   10   10   10   10   10   10   10

   0   0   0   0   0   0   0   0   0   0   0   7 2 3 4 6 8 9 14 
   6   0   0   0   0   0   0   0   0  10   0   2 19 5 
   2   0   0   0   0   0   0  10   0   0   0   4 19 17 12 7 
   1   0   0   0   0  10   0   0   0   0   0   4 20 19 17 7 
  10   0   0   0  10   0   0   0   0   0   0   3 20 11 7 
   4  10   0   0   0   0   0   0   0   0   0   5 20 18 17 15 13 
   5   0   0   0   0   0   0   0   0  10   0   3 21 18 10 
   1   0   0  10   0   0   0   0   0   0   0   3 19 17 10 
   2   0   0   0   0   0   0  10   0   0   0   3 19 18 16 
   9   0   0   0   0   0   0   0   0   0  10   2 15 13 
   2   0   0   0   0   0  10   0   0   0   0   2 17 15 
   8   0   0   0   0   0   0   0   0  10   0   2 20 15 
   7   0   0  10   0   0   0   0   0   0   0   1 16 
   2   0   0   0   0   0   0   0   0   0  10   1 19 
  10   0   0  10   0   0   0   0   0   0   0   1 22
   3   0   0   0  10   0   0   0   0   0   0   1 22
   5   0   0   0   0   0   0   0   0   0  10   1 22
   4   0   0   0   0   0  10   0   0   0   0   1 22
   5   0   0   0   0   0   0   0   0  10   0   1 22
   1   0   0  10   0   0   0   0   0   0   0   1 22
  10   0   0   0  10   0   0   0   0   0   0   1 22
   0   0   0   0   0   0   0   0   0   0   0   0 
